(set-logic HORN)
(set-info :source |
    Benchmark: C_VC
    Output by Princess (http://www.philipp.ruemmer.org/princess.shtml)
|)
(set-info :status unsat)
;===============================================================================
; Encoding of Heap sorts and operations
;-------------------------------------------------------------------------------
(define-sort Addr() Int)
(declare-datatypes ((AddrRange 0))
                   (((AddrRange (AddrRangeStart Addr) (AddrRangeSize Int)))))

(declare-datatypes ((HeapObject 0) (node 0))
                   (((O_Int (getInt Int)) (O_UInt (getUInt Int)) (O_Addr (getAddr Addr)) (O_AddrRange (getAddrRange AddrRange)) (O_node (getnode node)) (defObj))
                   ((node (|node::data_0| Int) (|node::next| Addr) (|node::data_1| Int) (|node::prev| Addr) (|node::data_2| Int)))))
(declare-datatypes ((BatchAllocResHeap 0) (AllocResHeap 0) (Heap 0))
                   (((BatchAllocResHeap   (newBatchHeap Heap) (newAddrRange AddrRange)))
                   ((AllocResHeap   (newHeap Heap) (newAddr Addr)))
                    ((HeapCtor (HeapSize Int)
                               (HeapContents (Array Addr HeapObject))))))
(define-fun nullAddr  () Addr 0)
(define-fun valid     ((h Heap) (p Addr)) Bool
  (and (>= (HeapSize h) p) (> p 0)))
(define-fun emptyHeap () Heap (
  HeapCtor 0 (( as const (Array Addr HeapObject)) defObj)))
(define-fun read ((h Heap) (p Addr)) HeapObject
  (ite (valid h p)
       (select (HeapContents h) p)
       defObj))
(define-fun write ((h Heap) (p Addr) (o HeapObject)) Heap
  (ite (valid h p)
       (HeapCtor (HeapSize h) (store (HeapContents h) p o))
       h))
(define-fun alloc   ((h Heap) (o HeapObject)) AllocResHeap
  (AllocResHeap (HeapCtor (+ 1 (HeapSize h))
                    (store (HeapContents h) (+ 1 (HeapSize h)) o))
          (+ 1 (HeapSize h))))

;===============================================================================
(declare-fun inv_main579_3 (Heap Int Int Addr) Bool)
(declare-fun inv_main583_7 (Heap Int Int Addr Addr Int) Bool)
(declare-fun inv_main600_3 (Heap Int) Bool)
(declare-fun inv_main600_3_13 (Heap Int Addr) Bool)
(declare-fun inv_main602_8_20 (Heap Int Addr Int) Bool)
(declare-fun inv_main609_8_29 (Heap Int Addr Addr Int) Bool)
(declare-fun inv_main_14 (Heap Int Addr) Bool)
(declare-fun inv_main_33 (Heap Int Addr) Bool)
(assert (forall ((var0 Int) (var1 Heap)) (or (not (and (= var1 emptyHeap) (= var0 5))) (inv_main600_3 var1 var0))))
(assert (forall ((var0 Int) (var1 Addr) (var2 Addr) (var3 Int) (var4 Int) (var5 Heap)) (or (not (inv_main583_7 var5 var4 var3 var2 var1 var0)) (inv_main583_7 var5 var4 var3 var2 var1 var0))))
(assert (forall ((var0 Int) (var1 Addr) (var2 Int) (var3 Int) (var4 node) (var5 Heap) (var6 Addr) (var7 Addr) (var8 Int) (var9 Int) (var10 Heap)) (or (not (and (inv_main579_3 var10 var9 var8 var7) (and (and (and (= nullAddr var6) (and (and (and (and (= var5 (newHeap (alloc var10 (O_node var4)))) (= var3 var9)) (= var2 var8)) (= var1 var7)) (= var6 (newAddr (alloc var10 (O_node var4)))))) (<= 0 (+ var8 (- 1)))) (= var0 1)))) (inv_main583_7 var5 var3 var2 var1 var6 var0))))
(assert (forall ((var0 Int) (var1 Addr) (var2 Addr) (var3 Addr) (var4 Addr) (var5 Int) (var6 Int) (var7 Heap) (var8 Heap) (var9 Int) (var10 Addr) (var11 Int) (var12 Heap)) (or (not (and (inv_main_14 var12 var11 var10) (and (and (and (and (not (= var9 0)) (and (and (and (and (= var8 var7) (= var6 var5)) (= var4 var3)) (= var2 var1)) (or (and (not (= 0 (|node::data_0| (getnode (read var7 var3))))) (= var9 1)) (and (= 0 (|node::data_0| (getnode (read var7 var3)))) (= var9 0))))) (and (and (and (= var7 var12) (= var5 var11)) (= var3 var10)) (= var1 (|node::prev| (getnode (read var12 var10)))))) (not (= var10 nullAddr))) (= var0 1)))) (inv_main609_8_29 var8 var6 var4 var2 var0))))
(assert (forall ((var0 Int) (var1 Addr) (var2 Addr) (var3 Int) (var4 Heap) (var5 Addr) (var6 Addr) (var7 Addr) (var8 Addr) (var9 Int) (var10 Int) (var11 Heap) (var12 Heap) (var13 Int) (var14 Int) (var15 Addr) (var16 Int) (var17 Heap)) (or (not (and (inv_main_14 var17 var16 var15) (and (and (and (and (not (= var14 0)) (and (and (= var13 0) (and (and (and (and (= var12 var11) (= var10 var9)) (= var8 var7)) (= var6 var5)) (or (and (not (= 0 (|node::data_0| (getnode (read var11 var7))))) (= var13 1)) (and (= 0 (|node::data_0| (getnode (read var11 var7)))) (= var13 0))))) (and (and (and (and (= var4 var12) (= var3 var10)) (= var2 var8)) (= var1 var6)) (or (and (not (= 0 (|node::data_1| (getnode (read var12 var8))))) (= var14 1)) (and (= 0 (|node::data_1| (getnode (read var12 var8)))) (= var14 0)))))) (and (and (and (= var11 var17) (= var9 var16)) (= var7 var15)) (= var5 (|node::prev| (getnode (read var17 var15)))))) (not (= var15 nullAddr))) (= var0 1)))) (inv_main609_8_29 var4 var3 var2 var1 var0))))
(assert (forall ((var0 Addr) (var1 Addr) (var2 Addr) (var3 Addr) (var4 Int) (var5 Int) (var6 Heap) (var7 Heap) (var8 Int) (var9 Int) (var10 Addr) (var11 Addr) (var12 Addr) (var13 Addr) (var14 Int) (var15 Int) (var16 Heap) (var17 Heap) (var18 Int) (var19 Addr) (var20 Int) (var21 Heap)) (or (not (and (inv_main_14 var21 var20 var19) (and (and (and (and (= var18 0) (and (and (and (and (= var17 var16) (= var15 var14)) (= var13 var12)) (= var11 var10)) (or (and (not (= 0 (|node::data_2| (getnode (read var16 var12))))) (= var9 1)) (and (= 0 (|node::data_2| (getnode (read var16 var12)))) (= var9 0))))) (and (and (= var8 0) (and (and (and (and (= var7 var6) (= var5 var4)) (= var3 var2)) (= var1 var0)) (or (and (not (= 0 (|node::data_0| (getnode (read var6 var2))))) (= var8 1)) (and (= 0 (|node::data_0| (getnode (read var6 var2)))) (= var8 0))))) (and (and (and (and (= var16 var7) (= var14 var5)) (= var12 var3)) (= var10 var1)) (or (and (not (= 0 (|node::data_1| (getnode (read var7 var3))))) (= var18 1)) (and (= 0 (|node::data_1| (getnode (read var7 var3)))) (= var18 0)))))) (and (and (and (= var6 var21) (= var4 var20)) (= var2 var19)) (= var0 (|node::prev| (getnode (read var21 var19)))))) (not (= var19 nullAddr))))) (inv_main609_8_29 var17 var15 var13 var11 var9))))
(assert (forall ((var0 Int) (var1 Addr) (var2 Addr) (var3 Int) (var4 Int) (var5 Heap) (var6 node) (var7 Addr) (var8 Int) (var9 Int) (var10 Heap) (var11 Addr) (var12 Addr) (var13 Int) (var14 Int) (var15 Heap) (var16 Addr) (var17 Addr) (var18 Int) (var19 Int) (var20 Heap) (var21 Addr) (var22 Addr) (var23 Int) (var24 Heap) (var25 Addr) (var26 Addr) (var27 Addr) (var28 Int) (var29 Int) (var30 Int) (var31 Int) (var32 Addr) (var33 Heap) (var34 Heap) (var35 Int) (var36 Int) (var37 Addr) (var38 Addr) (var39 Int) (var40 Int) (var41 Heap)) (or (not (and (inv_main579_3 var41 var40 var39 var38) (and (and (and (and (and (and (not (= var37 nullAddr)) (and (and (and (= var36 var35) (and (and (and (and (and (= var34 (write var33 var32 (O_node (node 0 (|node::next| (getnode (read var33 var32))) (|node::data_1| (getnode (read var33 var32))) (|node::prev| (getnode (read var33 var32))) (|node::data_2| (getnode (read var33 var32))))))) (= var31 var30)) (= var29 var28)) (= var27 var26)) (= var25 var32)) (and (and (and (and (= var24 (write var34 var25 (O_node (node (|node::data_0| (getnode (read var34 var25))) (|node::next| (getnode (read var34 var25))) 0 (|node::prev| (getnode (read var34 var25))) (|node::data_2| (getnode (read var34 var25))))))) (= var23 var31)) (= var35 var29)) (= var22 var27)) (= var21 var25)))) (and (and (and (and (= var20 (write var24 var21 (O_node (node (|node::data_0| (getnode (read var24 var21))) (|node::next| (getnode (read var24 var21))) (|node::data_1| (getnode (read var24 var21))) (|node::prev| (getnode (read var24 var21))) 1)))) (= var19 var23)) (= var18 var35)) (= var17 var22)) (= var16 var21))) (and (and (and (and (= var15 (write var20 var16 (O_node (node (|node::data_0| (getnode (read var20 var16))) var17 (|node::data_1| (getnode (read var20 var16))) (|node::prev| (getnode (read var20 var16))) (|node::data_2| (getnode (read var20 var16))))))) (= var14 var19)) (= var13 var18)) (= var12 var17)) (= var11 var16)))) (and (and (and (and (= var10 (write var15 var11 (O_node (node (|node::data_0| (getnode (read var15 var11))) (|node::next| (getnode (read var15 var11))) (|node::data_1| (getnode (read var15 var11))) nullAddr (|node::data_2| (getnode (read var15 var11))))))) (= var9 var14)) (= var8 var13)) (= var37 var12)) (= var7 var11))) (and (not (= nullAddr var32)) (and (and (and (and (= var33 (newHeap (alloc var41 (O_node var6)))) (= var30 var40)) (= var28 var39)) (= var26 var38)) (= var32 (newAddr (alloc var41 (O_node var6))))))) (and (and (and (and (= var5 (write var10 var37 (O_node (node (|node::data_0| (getnode (read var10 var37))) (|node::next| (getnode (read var10 var37))) (|node::data_1| (getnode (read var10 var37))) var7 (|node::data_2| (getnode (read var10 var37))))))) (= var4 var9)) (= var3 var8)) (= var2 var37)) (= var1 var7))) (<= 0 (+ var39 (- 1)))) (= var0 (+ var3 (- 1)))))) (inv_main579_3 var5 var4 var0 var1))))
(assert (forall ((var0 Int) (var1 Addr) (var2 Addr) (var3 Int) (var4 Int) (var5 Heap) (var6 node) (var7 Addr) (var8 Int) (var9 Int) (var10 Heap) (var11 Addr) (var12 Addr) (var13 Int) (var14 Int) (var15 Heap) (var16 Addr) (var17 Addr) (var18 Int) (var19 Int) (var20 Heap) (var21 Addr) (var22 Addr) (var23 Int) (var24 Heap) (var25 Addr) (var26 Addr) (var27 Addr) (var28 Int) (var29 Int) (var30 Int) (var31 Int) (var32 Addr) (var33 Heap) (var34 Heap) (var35 Int) (var36 Int) (var37 Addr) (var38 Addr) (var39 Int) (var40 Int) (var41 Heap)) (or (not (and (inv_main579_3 var41 var40 var39 var38) (and (and (and (and (and (and (not (= var37 nullAddr)) (and (and (and (not (= var36 var35)) (and (and (and (and (and (= var34 (write var33 var32 (O_node (node 0 (|node::next| (getnode (read var33 var32))) (|node::data_1| (getnode (read var33 var32))) (|node::prev| (getnode (read var33 var32))) (|node::data_2| (getnode (read var33 var32))))))) (= var31 var30)) (= var29 var28)) (= var27 var26)) (= var25 var32)) (and (and (and (and (= var24 (write var34 var25 (O_node (node (|node::data_0| (getnode (read var34 var25))) (|node::next| (getnode (read var34 var25))) 0 (|node::prev| (getnode (read var34 var25))) (|node::data_2| (getnode (read var34 var25))))))) (= var23 var31)) (= var35 var29)) (= var22 var27)) (= var21 var25)))) (and (and (and (and (= var20 (write var24 var21 (O_node (node (|node::data_0| (getnode (read var24 var21))) (|node::next| (getnode (read var24 var21))) (|node::data_1| (getnode (read var24 var21))) (|node::prev| (getnode (read var24 var21))) 0)))) (= var19 var23)) (= var18 var35)) (= var17 var22)) (= var16 var21))) (and (and (and (and (= var15 (write var20 var16 (O_node (node (|node::data_0| (getnode (read var20 var16))) var17 (|node::data_1| (getnode (read var20 var16))) (|node::prev| (getnode (read var20 var16))) (|node::data_2| (getnode (read var20 var16))))))) (= var14 var19)) (= var13 var18)) (= var12 var17)) (= var11 var16)))) (and (and (and (and (= var10 (write var15 var11 (O_node (node (|node::data_0| (getnode (read var15 var11))) (|node::next| (getnode (read var15 var11))) (|node::data_1| (getnode (read var15 var11))) nullAddr (|node::data_2| (getnode (read var15 var11))))))) (= var9 var14)) (= var8 var13)) (= var37 var12)) (= var7 var11))) (and (not (= nullAddr var32)) (and (and (and (and (= var33 (newHeap (alloc var41 (O_node var6)))) (= var30 var40)) (= var28 var39)) (= var26 var38)) (= var32 (newAddr (alloc var41 (O_node var6))))))) (and (and (and (and (= var5 (write var10 var37 (O_node (node (|node::data_0| (getnode (read var10 var37))) (|node::next| (getnode (read var10 var37))) (|node::data_1| (getnode (read var10 var37))) var7 (|node::data_2| (getnode (read var10 var37))))))) (= var4 var9)) (= var3 var8)) (= var2 var37)) (= var1 var7))) (<= 0 (+ var39 (- 1)))) (= var0 (+ var3 (- 1)))))) (inv_main579_3 var5 var4 var0 var1))))
(assert (forall ((var0 Int) (var1 node) (var2 Addr) (var3 Int) (var4 Int) (var5 Heap) (var6 Addr) (var7 Addr) (var8 Int) (var9 Int) (var10 Heap) (var11 Addr) (var12 Addr) (var13 Int) (var14 Int) (var15 Heap) (var16 Addr) (var17 Addr) (var18 Int) (var19 Heap) (var20 Addr) (var21 Addr) (var22 Addr) (var23 Int) (var24 Int) (var25 Int) (var26 Int) (var27 Addr) (var28 Heap) (var29 Heap) (var30 Int) (var31 Int) (var32 Addr) (var33 Addr) (var34 Int) (var35 Int) (var36 Heap)) (or (not (and (inv_main579_3 var36 var35 var34 var33) (and (and (and (and (and (= var32 nullAddr) (and (and (and (= var31 var30) (and (and (and (and (and (= var29 (write var28 var27 (O_node (node 0 (|node::next| (getnode (read var28 var27))) (|node::data_1| (getnode (read var28 var27))) (|node::prev| (getnode (read var28 var27))) (|node::data_2| (getnode (read var28 var27))))))) (= var26 var25)) (= var24 var23)) (= var22 var21)) (= var20 var27)) (and (and (and (and (= var19 (write var29 var20 (O_node (node (|node::data_0| (getnode (read var29 var20))) (|node::next| (getnode (read var29 var20))) 0 (|node::prev| (getnode (read var29 var20))) (|node::data_2| (getnode (read var29 var20))))))) (= var18 var26)) (= var30 var24)) (= var17 var22)) (= var16 var20)))) (and (and (and (and (= var15 (write var19 var16 (O_node (node (|node::data_0| (getnode (read var19 var16))) (|node::next| (getnode (read var19 var16))) (|node::data_1| (getnode (read var19 var16))) (|node::prev| (getnode (read var19 var16))) 1)))) (= var14 var18)) (= var13 var30)) (= var12 var17)) (= var11 var16))) (and (and (and (and (= var10 (write var15 var11 (O_node (node (|node::data_0| (getnode (read var15 var11))) var12 (|node::data_1| (getnode (read var15 var11))) (|node::prev| (getnode (read var15 var11))) (|node::data_2| (getnode (read var15 var11))))))) (= var9 var14)) (= var8 var13)) (= var7 var12)) (= var6 var11)))) (and (and (and (and (= var5 (write var10 var6 (O_node (node (|node::data_0| (getnode (read var10 var6))) (|node::next| (getnode (read var10 var6))) (|node::data_1| (getnode (read var10 var6))) nullAddr (|node::data_2| (getnode (read var10 var6))))))) (= var4 var9)) (= var3 var8)) (= var32 var7)) (= var2 var6))) (and (not (= nullAddr var27)) (and (and (and (and (= var28 (newHeap (alloc var36 (O_node var1)))) (= var25 var35)) (= var23 var34)) (= var21 var33)) (= var27 (newAddr (alloc var36 (O_node var1))))))) (<= 0 (+ var34 (- 1)))) (= var0 (+ var3 (- 1)))))) (inv_main579_3 var5 var4 var0 var2))))
(assert (forall ((var0 Int) (var1 node) (var2 Addr) (var3 Int) (var4 Int) (var5 Heap) (var6 Addr) (var7 Addr) (var8 Int) (var9 Int) (var10 Heap) (var11 Addr) (var12 Addr) (var13 Int) (var14 Int) (var15 Heap) (var16 Addr) (var17 Addr) (var18 Int) (var19 Heap) (var20 Addr) (var21 Addr) (var22 Addr) (var23 Int) (var24 Int) (var25 Int) (var26 Int) (var27 Addr) (var28 Heap) (var29 Heap) (var30 Int) (var31 Int) (var32 Addr) (var33 Addr) (var34 Int) (var35 Int) (var36 Heap)) (or (not (and (inv_main579_3 var36 var35 var34 var33) (and (and (and (and (and (= var32 nullAddr) (and (and (and (not (= var31 var30)) (and (and (and (and (and (= var29 (write var28 var27 (O_node (node 0 (|node::next| (getnode (read var28 var27))) (|node::data_1| (getnode (read var28 var27))) (|node::prev| (getnode (read var28 var27))) (|node::data_2| (getnode (read var28 var27))))))) (= var26 var25)) (= var24 var23)) (= var22 var21)) (= var20 var27)) (and (and (and (and (= var19 (write var29 var20 (O_node (node (|node::data_0| (getnode (read var29 var20))) (|node::next| (getnode (read var29 var20))) 0 (|node::prev| (getnode (read var29 var20))) (|node::data_2| (getnode (read var29 var20))))))) (= var18 var26)) (= var30 var24)) (= var17 var22)) (= var16 var20)))) (and (and (and (and (= var15 (write var19 var16 (O_node (node (|node::data_0| (getnode (read var19 var16))) (|node::next| (getnode (read var19 var16))) (|node::data_1| (getnode (read var19 var16))) (|node::prev| (getnode (read var19 var16))) 0)))) (= var14 var18)) (= var13 var30)) (= var12 var17)) (= var11 var16))) (and (and (and (and (= var10 (write var15 var11 (O_node (node (|node::data_0| (getnode (read var15 var11))) var12 (|node::data_1| (getnode (read var15 var11))) (|node::prev| (getnode (read var15 var11))) (|node::data_2| (getnode (read var15 var11))))))) (= var9 var14)) (= var8 var13)) (= var7 var12)) (= var6 var11)))) (and (and (and (and (= var5 (write var10 var6 (O_node (node (|node::data_0| (getnode (read var10 var6))) (|node::next| (getnode (read var10 var6))) (|node::data_1| (getnode (read var10 var6))) nullAddr (|node::data_2| (getnode (read var10 var6))))))) (= var4 var9)) (= var3 var8)) (= var32 var7)) (= var2 var6))) (and (not (= nullAddr var27)) (and (and (and (and (= var28 (newHeap (alloc var36 (O_node var1)))) (= var25 var35)) (= var23 var34)) (= var21 var33)) (= var27 (newAddr (alloc var36 (O_node var1))))))) (<= 0 (+ var34 (- 1)))) (= var0 (+ var3 (- 1)))))) (inv_main579_3 var5 var4 var0 var2))))
(assert (forall ((var0 Addr) (var1 Int) (var2 Heap)) (or (not (and (inv_main600_3 var2 var1) (= var0 nullAddr))) (inv_main579_3 var2 var1 var1 var0))))
(assert (forall ((var0 Addr) (var1 Int) (var2 Heap)) (or (not (and (inv_main600_3_13 var2 var1 var0) (= (|node::next| (getnode (read var2 var0))) nullAddr))) (inv_main_14 var2 var1 var0))))
(assert (forall ((var0 Addr) (var1 Addr) (var2 Int) (var3 Heap) (var4 Int) (var5 Addr) (var6 Addr) (var7 Int) (var8 Heap)) (or (not (and (inv_main609_8_29 var8 var7 var6 var5 var4) (and (= var4 0) (and (and (and (= var3 (write var8 var6 defObj)) (= var2 var7)) (= var1 var6)) (= var0 var5))))) (inv_main_14 var3 var2 var0))))
(assert (forall ((var0 Addr) (var1 Int) (var2 Int) (var3 Heap)) (or (not (and (inv_main579_3 var3 var2 var1 var0) (not (<= 0 (+ var1 (- 1)))))) (inv_main600_3_13 var3 var2 var0))))
(assert (forall ((var0 Addr) (var1 Addr) (var2 Int) (var3 Heap) (var4 Int) (var5 Addr) (var6 Int) (var7 Heap)) (or (not (and (inv_main602_8_20 var7 var6 var5 var4) (and (and (and (and (= var3 var7) (= var2 var6)) (= var1 var5)) (= var0 (|node::next| (getnode (read var7 var5))))) (= var4 0)))) (inv_main600_3_13 var3 var2 var0))))
(assert (forall ((var0 Int) (var1 Addr) (var2 Int) (var3 Heap) (var4 Int) (var5 Addr) (var6 Int) (var7 Heap)) (or (not (and (inv_main600_3_13 var7 var6 var5) (and (and (and (not (= var4 0)) (and (and (and (= var3 var7) (= var2 var6)) (= var1 var5)) (or (and (not (= 0 (|node::data_0| (getnode (read var7 var5))))) (= var4 1)) (and (= 0 (|node::data_0| (getnode (read var7 var5)))) (= var4 0))))) (not (= (|node::next| (getnode (read var7 var5))) nullAddr))) (= var0 1)))) (inv_main602_8_20 var3 var2 var1 var0))))
(assert (forall ((var0 Int) (var1 Addr) (var2 Int) (var3 Heap) (var4 Addr) (var5 Int) (var6 Heap) (var7 Int) (var8 Int) (var9 Addr) (var10 Int) (var11 Heap)) (or (not (and (inv_main600_3_13 var11 var10 var9) (and (and (and (not (= var8 0)) (and (and (= var7 0) (and (and (and (= var6 var11) (= var5 var10)) (= var4 var9)) (or (and (not (= 0 (|node::data_0| (getnode (read var11 var9))))) (= var7 1)) (and (= 0 (|node::data_0| (getnode (read var11 var9)))) (= var7 0))))) (and (and (and (= var3 var6) (= var2 var5)) (= var1 var4)) (or (and (not (= 0 (|node::data_1| (getnode (read var6 var4))))) (= var8 1)) (and (= 0 (|node::data_1| (getnode (read var6 var4)))) (= var8 0)))))) (not (= (|node::next| (getnode (read var11 var9))) nullAddr))) (= var0 1)))) (inv_main602_8_20 var3 var2 var1 var0))))
(assert (forall ((var0 Addr) (var1 Int) (var2 Heap) (var3 Int) (var4 Int) (var5 Addr) (var6 Addr) (var7 Int) (var8 Int) (var9 Heap) (var10 Heap) (var11 Int) (var12 Addr) (var13 Int) (var14 Heap)) (or (not (and (inv_main600_3_13 var14 var13 var12) (and (and (and (= var11 0) (and (and (and (= var10 var9) (= var8 var7)) (= var6 var5)) (or (and (not (= 0 (|node::data_2| (getnode (read var9 var5))))) (= var4 1)) (and (= 0 (|node::data_2| (getnode (read var9 var5)))) (= var4 0))))) (and (and (= var3 0) (and (and (and (= var2 var14) (= var1 var13)) (= var0 var12)) (or (and (not (= 0 (|node::data_0| (getnode (read var14 var12))))) (= var3 1)) (and (= 0 (|node::data_0| (getnode (read var14 var12)))) (= var3 0))))) (and (and (and (= var9 var2) (= var7 var1)) (= var5 var0)) (or (and (not (= 0 (|node::data_1| (getnode (read var2 var0))))) (= var11 1)) (and (= 0 (|node::data_1| (getnode (read var2 var0)))) (= var11 0)))))) (not (= (|node::next| (getnode (read var14 var12))) nullAddr))))) (inv_main602_8_20 var10 var8 var6 var4))))
(assert (forall ((var0 Int) (var1 Addr) (var2 Addr) (var3 Int) (var4 Heap)) (or (not (and (inv_main609_8_29 var4 var3 var2 var1 var0) (not (= var0 0)))) (inv_main_33 var4 var3 var2))))
(assert (forall ((var0 Int) (var1 Addr) (var2 Int) (var3 Heap)) (or (not (and (inv_main602_8_20 var3 var2 var1 var0) (not (= var0 0)))) (inv_main_33 var3 var2 var1))))
(assert (forall ((var0 Addr) (var1 Int) (var2 Heap)) (not (inv_main_33 var2 var1 var0))))
(check-sat)
